\* notleastsquares *\
Minimize
OBJ: __dummy
Subject To
NegativeAbsoluteRequiement_Points_p1: Points_p1 + a + 3 b - c >= 0
NegativeAbsoluteRequiement_Points_p2: Points_p2 + 2 a + 5 b - c >= 0
NegativeAbsoluteRequiement_Points_p3: Points_p3 + 3 a + 7 b - c >= 0
NegativeAbsoluteRequiement_Points_p4: Points_p4 + 5 a + 11 b - c >= 0
NegativeAbsoluteRequiement_Points_p5: Points_p5 + 7 a + 14 b - c >= 0
NegativeAbsoluteRequiement_Points_p6: Points_p6 + 8 a + 15 b - c >= 0
NegativeAbsoluteRequiement_Points_p7: Points_p7 + 10 a + 19 b - c >= 0
PositiveAbsoluteRequiement_Points_p1: Points_p1 - a - 3 b + c >= 0
PositiveAbsoluteRequiement_Points_p2: Points_p2 - 2 a - 5 b + c >= 0
PositiveAbsoluteRequiement_Points_p3: Points_p3 - 3 a - 7 b + c >= 0
PositiveAbsoluteRequiement_Points_p4: Points_p4 - 5 a - 11 b + c >= 0
PositiveAbsoluteRequiement_Points_p5: Points_p5 - 7 a - 14 b + c >= 0
PositiveAbsoluteRequiement_Points_p6: Points_p6 - 8 a - 15 b + c >= 0
PositiveAbsoluteRequiement_Points_p7: Points_p7 - 10 a - 19 b + c >= 0
Bounds
Points_p1 free
Points_p2 free
Points_p3 free
Points_p4 free
Points_p5 free
Points_p6 free
Points_p7 free
__dummy = 0
a free
b free
c free
Generals
a
b
c
End
